NAME : instances/diverse-tsp/instance-36.tsp
COMMENT : No Comment
TYPE : TSP
DIMENSION: 50
EDGE_WEIGHT_TYPE : EUC_2D
NODE_COORD_SECTION
1 534 1780 
2 67 857 
3 924 1643 
4 1900 956 
5 1416 1590 
6 1160 1268 
7 700 1256 
8 502 1799 
9 263 1622 
10 1726 1031 
11 1894 302 
12 1911 1418 
13 429 1871 
14 659 1316 
15 158 1986 
16 1706 300 
17 647 1573 
18 1477 186 
19 1858 1580 
20 314 1834 
21 1667 570 
22 881 1743 
23 866 851 
24 56 605 
25 1034 203 
26 1411 13 
27 52 1557 
28 1873 1022 
29 970 1260 
30 580 80 
31 182 745 
32 130 1868 
33 230 470 
34 550 634 
35 53 1714 
36 343 647 
37 1255 509 
38 1208 1118 
39 139 1160 
40 1378 1409 
41 528 257 
42 1316 429 
43 252 175 
44 5 1338 
45 1812 1737 
46 880 1460 
47 1333 1841 
48 1745 1851 
49 1254 325 
50 640 700 
EOF
